Normalized Data/p02_28_normalized_split0.vrp
NAME:p02_28_NORMALIZED_split
BEST_KNOWN: 0
COMMENT: 0
DIMENSION: 301
CAPACITY: 100
EDGE_WEIGHT_FORMAT: FUNCTION
EDGE_WEIGHT_TYPE: EXACT_2D
NODE_COORD_SECTION
1 0.00000 0.00000
2 -12 -12
3 -12 -12
4 -12 -12
5 -12 -12
6 47 25
7 47 25
8 47 25
9 14 20
10 14 20
11 14 20
12 23 -26
13 23 -26
14 23 -26
15 -23 30
16 -23 30
17 -23 30
18 -1 49
19 -1 49
20 -1 49
21 -1 49
22 -1 49
23 -1 49
24 46 43
25 46 43
26 4 45
27 4 45
28 4 45
29 -41 -25
30 -41 -25
31 23 -8
32 23 -8
33 23 -8
34 23 -8
35 23 -8
36 -15 -8
37 -15 -8
38 -18 29
39 -18 29
40 -18 29
41 -18 29
42 8 -46
43 8 -46
44 8 -46
45 8 -46
46 24 31
47 24 31
48 24 31
49 24 31
50 -39 -31
51 -39 -31
52 -39 -31
53 30 41
54 30 41
55 30 41
56 30 41
57 44 -34
58 44 -34
59 44 -34
60 -37 -37
61 -37 -37
62 -37 -37
63 -37 -37
64 31 50
65 31 50
66 31 50
67 31 50
68 31 50
69 35 -44
70 35 -44
71 35 -44
72 35 -44
73 35 -44
74 -40 47
75 -40 47
76 -40 47
77 -40 47
78 8 -39
79 8 -39
80 28 -5
81 28 -5
82 -32 21
83 -45 30
84 -45 30
85 -45 30
86 -45 30
87 -45 30
88 -45 30
89 -6 2
90 -6 2
91 -6 2
92 -6 2
93 26 30
94 26 30
95 26 30
96 19 -43
97 19 -43
98 19 -43
99 -42 12
100 -42 12
101 -42 12
102 -42 12
103 39 -27
104 39 -27
105 39 -27
106 39 -27
107 39 -27
108 4 3
109 4 3
110 4 3
111 20 -23
112 20 -23
113 20 -23
114 20 -23
115 20 -23
116 -39 6
117 -39 6
118 32 31
119 32 31
120 32 31
121 -9 16
122 -9 16
123 -9 16
124 -9 16
125 -9 16
126 -9 16
127 24 -48
128 24 -48
129 23 -11
130 23 -11
131 23 -11
132 23 -11
133 23 -11
134 23 -11
135 -31 -21
136 -31 -21
137 -31 -21
138 -31 -21
139 34 -24
140 34 -24
141 34 -24
142 34 -24
143 34 -24
144 34 -24
145 -21 -28
146 -21 -28
147 -15 5
148 -15 5
149 -15 5
150 11 23
151 11 23
152 11 23
153 6 39
154 6 39
155 6 39
156 6 39
157 -33 16
158 -33 16
159 -33 16
160 -33 16
161 -33 16
162 -33 16
163 -33 16
164 18 -19
165 18 -19
166 18 -19
167 45 23
168 45 23
169 45 23
170 45 23
171 40 -11
172 40 -11
173 40 -11
174 40 -11
175 40 -11
176 40 -11
177 0 -15
178 0 -15
179 0 -15
180 0 -15
181 0 -15
182 -23 -15
183 -23 -15
184 -49 -38
185 -49 -38
186 -49 -38
187 -49 -38
188 -3 -39
189 -3 -39
190 -3 -39
191 -3 -39
192 -3 -39
193 24 12
194 24 12
195 24 12
196 24 12
197 24 12
198 37 -36
199 40 18
200 40 18
201 40 18
202 40 18
203 40 18
204 40 18
205 -46 -33
206 -46 -33
207 -46 -33
208 -46 -33
209 5 -2
210 5 -2
211 5 -2
212 5 -2
213 -14 -9
214 -14 -9
215 -35 46
216 -35 46
217 -35 46
218 -35 46
219 -35 46
220 -35 46
221 28 -9
222 28 -9
223 28 -9
224 28 -9
225 28 -9
226 28 -9
227 28 -9
228 48 43
229 48 43
230 -24 7
231 -24 7
232 -24 7
233 -24 7
234 22 -35
235 22 -35
236 22 -35
237 22 -35
238 22 -35
239 4 -5
240 4 -5
241 4 -5
242 4 -5
243 4 -5
244 4 -5
245 -31 22
246 -31 22
247 -31 22
248 -31 22
249 -31 22
250 -31 22
251 -31 22
252 30 -45
253 30 -45
254 30 -45
255 30 -45
256 30 -45
257 30 -45
258 30 -45
259 -10 28
260 -10 28
261 -10 28
262 -10 28
263 -10 28
264 -10 28
265 -10 28
266 -19 8
267 -19 8
268 -19 8
269 -19 8
270 -19 8
271 -19 8
272 -43 4
273 -43 4
274 -43 4
275 -43 4
276 -43 4
277 -43 4
278 -44 -21
279 -44 -21
280 -44 -21
281 -44 -21
282 -44 -21
283 15 8
284 15 8
285 19 33
286 19 33
287 19 33
288 19 33
289 -31 -10
290 -31 -10
291 -31 -10
292 36 14
293 36 14
294 36 14
295 -34 33
296 -34 33
297 30 -16
298 30 -16
299 30 -16
300 30 -16
301 30 -16
DEMAND_SECTION
1 0
2 20
3 20
4 5
5 1
6 10
7 1
8 1
9 20
10 10
11 5
12 20
13 20
14 5
15 20
16 1
17 1
18 20
19 20
20 5
21 1
22 1
23 1
24 20
25 5
26 20
27 20
28 1
29 20
30 5
31 20
32 10
33 1
34 1
35 1
36 20
37 1
38 20
39 10
40 1
41 1
42 10
43 5
44 1
45 1
46 20
47 5
48 1
49 1
50 20
51 20
52 10
53 10
54 5
55 1
56 1
57 20
58 1
59 1
60 10
61 5
62 1
63 1
64 20
65 20
66 1
67 1
68 1
69 10
70 5
71 1
72 1
73 1
74 20
75 1
76 1
77 1
78 20
79 1
80 20
81 5
82 20
83 10
84 5
85 1
86 1
87 1
88 1
89 20
90 5
91 1
92 1
93 10
94 1
95 1
96 20
97 10
98 5
99 20
100 20
101 5
102 1
103 20
104 20
105 5
106 1
107 1
108 20
109 20
110 5
111 20
112 20
113 5
114 1
115 1
116 20
117 5
118 20
119 1
120 1
121 20
122 20
123 1
124 1
125 1
126 1
127 20
128 20
129 20
130 20
131 5
132 1
133 1
134 1
135 10
136 5
137 1
138 1
139 10
140 5
141 1
142 1
143 1
144 1
145 20
146 10
147 20
148 5
149 1
150 20
151 1
152 1
153 20
154 20
155 5
156 1
157 20
158 20
159 5
160 1
161 1
162 1
163 1
164 20
165 10
166 5
167 20
168 20
169 1
170 1
171 10
172 5
173 1
174 1
175 1
176 1
177 20
178 1
179 1
180 1
181 1
182 20
183 5
184 20
185 10
186 5
187 1
188 10
189 1
190 1
191 1
192 1
193 20
194 10
195 1
196 1
197 1
198 20
199 20
200 5
201 1
202 1
203 1
204 1
205 20
206 20
207 1
208 1
209 20
210 20
211 1
212 1
213 20
214 20
215 10
216 5
217 1
218 1
219 1
220 1
221 20
222 10
223 5
224 1
225 1
226 1
227 1
228 10
229 5
230 20
231 20
232 1
233 1
234 20
235 20
236 5
237 1
238 1
239 20
240 20
241 1
242 1
243 1
244 1
245 20
246 10
247 5
248 1
249 1
250 1
251 1
252 20
253 10
254 5
255 1
256 1
257 1
258 1
259 20
260 20
261 5
262 1
263 1
264 1
265 1
266 20
267 5
268 1
269 1
270 1
271 1
272 20
273 5
274 1
275 1
276 1
277 1
278 20
279 10
280 5
281 1
282 1
283 10
284 5
285 10
286 1
287 1
288 1
289 10
290 1
291 1
292 10
293 1
294 1
295 10
296 5
297 20
298 20
299 5
300 1
301 1
DEPOT_SECTION
1
-1
EOF