Normalized Data/p02_28_normalized_split0.sol
300 -2 1 213 212 35 -3 59 61 60 62 184 183 185 186 206 207 205 204 -4 145 144 49 51 50 134 137 136 135 -11 13 127 126 97 96 95 -16 15 14 38 40 39 37 120 125 122 124 123 121 -21 17 22 18 20 19 26 25 27 -33 30 31 34 32 223 224 221 225 226 222 220 79 80 -36 181 182 29 28 278 281 280 279 277 290 289 288 -52 55 54 53 63 65 64 67 66 23 24 227 228 -57 58 56 197 69 70 72 71 68 252 254 257 255 256 251 253 -81 83 86 87 82 85 84 75 74 73 76 214 217 219 216 218 215 294 295 -89 146 147 148 231 230 232 229 270 265 -90 88 91 9 8 10 193 192 195 194 196 282 -99 98 101 100 271 276 273 272 275 274 115 116 -107 109 108 209 210 208 211 -113 111 112 114 110 12 163 164 -118 119 117 93 94 92 45 46 48 47 284 285 286 287 151 149 150 -130 133 129 132 128 131 296 299 298 300 297 -152 153 154 155 261 262 263 264 260 258 259 -165 139 141 143 138 142 140 104 103 105 106 102 174 173 171 175 172 170 -177 179 180 178 176 239 243 238 241 242 240 -191 187 188 190 189 42 41 43 44 77 78 234 233 236 237 235 -245 246 247 249 250 248 244 159 157 160 162 158 161 156 269 266 268 267 -283 7 6 5 166 169 167 168 201 199 198 203 202 200 292 291 293 0 





OBJ=
2132.876
BEST_KNOWN=
0.000